Route #1: 8 1 2 3 14 13 26 25 19 30 44 39 45 51 50 61 54 60 67 81 80 86 87 74 88 93 94 95 89 75 68 62 69 55 56 70 63 64 78 77 76 82 90 96 97 91 83 71 65 57 52 66 72 84 79 92 98 99 100 85 73 58 59 53 49 43 37 38 29 24 18 12 7 11 6 16 17 28 36 35 23 10 5 4 9 15 20 31 32 46 40 33 27 21 22 34 41 42 48 47
Cost 46087
